12 16 9 10
1 2 2 3 9 1 12 13 19 13 18 7 20 15 18 2 
13.27 15.76 2.71 2.84 8.54 5.16 10.57 14.54 11.22 0.19 2.94 6.79 6.42 6.14 10.95 15.28 
5.74 12.26 0.27 0.18 9.35 15.54 11.75 15.41 15.7 5.37 12.42 3.71 0.54 5.64 7.4 13.51 
12.95 10.12 2.18 5.21 6.62 0.22 4.99 12.21 3.34 13.94 3.81 9.86 13.55 14.06 2.69 12.81 
12.29 11.32 8.94 13.41 12.23 11.42 12.07 10.64 8.68 13.41 10.94 12.44 6.02 6.8 10.97 13.6 
9.2 5.89 0.21 9.04 8.84 2.95 15.8 15.63 3.25 7.65 3.3 1.97 3.96 12.65 2.79 1 
3.1 10.39 8.7 7.32 5.56 13.04 10.31 0.31 4.04 11.61 2.04 10.73 9.24 5.7 0.48 12.93 
2.84 13.73 8.14 10.51 14.7 0.32 0.66 4.56 3.22 0.96 14.45 3.68 5.77 1.4 8.99 1.31 
11.38 10.15 14.56 5.47 3.95 15.94 9.28 14.24 10.42 10.16 3.59 6.1 5.09 2.46 5.96 8.6 
10.37 4.55 6.39 14.26 5.12 2.19 3.97 13.96 6.34 0.17 9.75 8.95 7.97 7.26 7.04 13.83 
8 8 8 8 8 8 8 8 8 8 8 8 8 8 8 8 
0.49 9.27 5.52 8.57 13.03 14.48 3.13 7.87 11.9 15.14 5.18 13.98 3.58 14.64 12.12 1.21 
15.2 6.25 13.28 9.75 10.93 1.25 6.08 5.96 2.72 11.62 7.75 10.54 6.38 13.48 7.92 6.36 
1 1 1 1 1 1 1 1 1 1 1 1 1 1 1 1 
1 1 1 1 1 1 1 1 1 1 1 1 1 1 1 1 
1 1 1 1 1 1 1 1 1 1 1 1 1 1 1 1 
1 1 1 1 1 1 1 1 1 1 1 1 1 1 1 1 
1 1 1 1 1 1 1 1 1 1 1 1 1 1 1 1 
1 1 1 1 1 1 1 1 1 1 1 1 1 1 1 1 
1 1 1 1 1 1 1 1 1 1 1 1 1 1 1 1 
1 1 1 1 1 1 1 1 1 1 1 1 1 1 1 1 
1 1 1 1 1 1 1 1 1 1 1 1 1 1 1 1 
1 1 1 1 1 1 1 1 1 1 1 1 1 1 1 1 
1 1 1 1 1 1 1 1 1 1 1 1 1 1 1 1 
1 1 1 1 1 1 1 1 1 1 1 1 1 1 1 1 
0.01 0.01 0.01 0.01 0.01 0.01 0.01 0.01 0.01 0.01 0.01 0.01 0.01 0.01 0.01 0.01 
0.02 0.02 0.02 0.02 0.02 0.02 0.02 0.02 0.02 0.02 0.02 0.02 0.02 0.02 0.02 0.02 
0.03 0.03 0.03 0.03 0.03 0.03 0.03 0.03 0.03 0.03 0.03 0.03 0.03 0.03 0.03 0.03 
0.04 0.04 0.04 0.04 0.04 0.04 0.04 0.04 0.04 0.04 0.04 0.04 0.04 0.04 0.04 0.04 
0.05 0.05 0.05 0.05 0.05 0.05 0.05 0.05 0.05 0.05 0.05 0.05 0.05 0.05 0.05 0.05 
0.06 0.06 0.06 0.06 0.06 0.06 0.06 0.06 0.06 0.06 0.06 0.06 0.06 0.06 0.06 0.06 
0.07 0.07 0.07 0.07 0.07 0.07 0.07 0.07 0.07 0.07 0.07 0.07 0.07 0.07 0.07 0.07 
0.08 0.08 0.08 0.08 0.08 0.08 0.08 0.08 0.08 0.08 0.08 0.08 0.08 0.08 0.08 0.08 
0.09 0.09 0.09 0.09 0.09 0.09 0.09 0.09 0.09 0.09 0.09 0.09 0.09 0.09 0.09 0.09 
0.1 0.1 0.1 0.1 0.1 0.1 0.1 0.1 0.1 0.1 0.1 0.1 0.1 0.1 0.1 0.1 
0.5 0.5 0.5 0.5 0.5 0.5 0.5 0.5 0.5 0.5 0.5 0.5 0.5 0.5 0.5 0.5 
1 1 1 1 1 1 1 1 1 1 1 1 1 1 1 1 
